2982.82
0 13 64 65 85 83 81 50 84 87 86 38 0 
0 61 51 57 69 79 77 36 48 0 
0 5 95 98 97 0 
0 89 92 90 0 
0 35 29 54 47 39 78 0 
0 27 21 25 52 55 68 53 62 59 49 80 45 56 60 43 58 44 32 46 67 37 30 42 34 28 41 40 31 33 0 
0 76 74 75 73 0 
0 12 16 15 11 23 17 20 18 93 91 96 88 94 0 
0 14 22 82 7 4 3 100 6 8 9 10 1 2 0 
0 66 63 72 70 71 0 
0 19 26 99 24 0 
